<number of tasks>
89

<cycle time>
15

<task times>
1 1
2 2
3 3
4 4
5 5
6 6
7 7
8 8
9 9
10 10
11 1
12 2
13 3
14 4
15 5
16 6
17 7
18 8
19 9
20 10
21 1
22 2
23 3
24 4
25 5
26 6
27 7
28 8
29 9
30 10
31 1
32 2
33 3
34 4
35 5
36 6
37 7
38 8
39 9
40 10
41 1
42 2
43 3
44 4
45 5
46 6
47 7
48 8
49 9
50 10
51 1
52 2
53 3
54 4
55 5
56 6
57 7
58 8
59 9
60 10
61 1
62 2
63 3
64 4
65 5
66 6
67 7
68 8
69 9
70 10
71 1
72 2
73 3
74 4
75 5
76 6
77 7
78 8
79 9
80 10
81 1
82 2
83 3
84 4
85 5
86 6
87 7
88 8
89 9

<precedence relations>
1,2
2,3
3,4
4,5
4,6
4,7
4,8
4,9
5,10
6,11
7,12
8,18
9,18
10,14
11,12
12,13
13,14
14,15
14,16
15,17
16,54
17,18
18,19
18,20
19,22
20,21
20,28
21,54
22,23
23,24
24,25
25,26
25,27
25,29
26,37
27,33
28,29
29,31
30,54
31,32
32,33
33,34
34,35
35,36
35,37
36,38
37,38
38,39
39,40
39,41
39,42
39,43
40,44
41,53
42,53
43,45
44,52
45,46
46,47
47,48
47,49
49,50
50,51
51,52
52,53
53,68
53,69
53,70
53,71
54,55
55,56
56,57
57,58
57,59
57,60
57,61
57,62
57,63
57,64
57,65
57,66
58,67
59,67
60,67
61,67
62,67
63,67
64,67
65,67
66,67
67,73
68,72
69,72
70,72
71,73
72,78
72,80
73,74
74,75
74,76
75,77
76,81
77,78
78,79
79,81
80,81
81,82
81,84
81,85
82,83
83,86
84,86
85,86
86,87
87,88
87,89

<setup times forward>
1,30:1
2,30:1
3,30:1
4,30:1
5,10:1
5,12:1
5,13:1
5,30:1
6,10:1
6,30:1
7,10:1
7,12:1
7,30:1
8,10:1
8,12:1
8,13:1
8,17:1
8,18:1
8,30:1
9,10:1
9,12:1
9,13:1
9,17:1
9,18:1
9,30:1
10,6:1
10,7:1
10,8:1
10,9:1
10,11:1
10,14:1
11,10:1
11,12:1
11,30:1
12,5:1
12,8:1
12,9:1
13,5:1
13,8:1
13,9:1
13,14:1
14,30:1
15,17:1
15,30:1
16,17:1
16,18:1
16,19:1
16,22:1
16,23:1
16,27:1
16,28:1
16,29:1
16,30:1
16,31:1
16,32:1
16,33:1
16,41:1
16,42:1
16,43:1
16,45:1
16,46:1
16,47:1
16,48:1
16,52:1
16,53:1
16,54:1
16,68:1
16,69:1
16,70:1
16,71:1
16,72:1
17,8:1
17,9:1
17,16:1
18,16:1
18,20:1
19,16:1
19,20:1
19,21:1
19,55:1
19,56:1
19,57:1
19,58:1
19,60:1
19,65:1
20,19:1
20,22:1
20,23:1
20,27:1
20,28:1
20,30:1
21,19:1
21,22:1
21,23:1
21,27:1
21,28:1
21,29:1
21,30:1
21,31:1
21,32:1
21,33:1
21,41:1
21,42:1
21,43:1
21,45:1
21,46:1
21,47:1
21,48:1
21,52:1
21,53:1
21,54:1
21,68:1
21,69:1
21,70:1
21,71:1
21,72:1
22,16:1
22,20:1
22,21:1
22,55:1
22,56:1
22,57:1
22,58:1
22,60:1
22,65:1
23,16:1
23,20:1
23,21:1
23,24:1
23,55:1
23,56:1
23,57:1
23,58:1
23,60:1
23,65:1
24,28:1
24,30:1
24,54:1
24,59:1
24,61:1
24,62:1
24,63:1
24,64:1
24,66:1
24,67:1
25,27:1
25,28:1
25,29:1
25,30:1
25,54:1
25,59:1
25,61:1
25,62:1
25,63:1
25,64:1
25,66:1
25,67:1
26,27:1
26,28:1
26,29:1
26,30:1
26,31:1
26,32:1
26,33:1
26,54:1
26,59:1
26,61:1
26,62:1
26,63:1
26,64:1
26,66:1
26,67:1
27,16:1
27,20:1
27,21:1
27,26:1
27,55:1
27,56:1
27,57:1
27,58:1
27,60:1
27,65:1
28,16:1
28,21:1
28,24:1
28,25:1
28,26:1
28,55:1
28,56:1
28,57:1
28,58:1
28,60:1
28,65:1
29,16:1
29,21:1
29,26:1
29,55:1
29,56:1
29,57:1
29,58:1
29,60:1
29,65:1
30,1:1
30,2:1
30,3:1
30,4:1
30,5:1
30,6:1
30,7:1
30,8:1
30,9:1
30,11:1
30,14:1
30,15:1
30,16:1
30,20:1
30,21:1
30,24:1
30,25:1
30,26:1
30,34:1
30,35:1
30,36:1
30,37:1
30,38:1
30,39:1
30,40:1
30,44:1
30,49:1
30,50:1
30,51:1
30,80:1
31,16:1
31,21:1
31,26:1
31,55:1
31,56:1
31,57:1
31,58:1
31,60:1
31,65:1
32,16:1
32,21:1
32,26:1
32,55:1
32,56:1
32,57:1
32,58:1
32,60:1
32,65:1
33,16:1
33,21:1
33,26:1
33,34:1
33,55:1
33,56:1
33,57:1
33,58:1
33,60:1
33,65:1
34,30:1
34,54:1
34,59:1
34,61:1
34,62:1
34,63:1
34,64:1
34,66:1
34,67:1
35,30:1
35,54:1
35,59:1
35,61:1
35,62:1
35,63:1
35,64:1
35,66:1
35,67:1
36,30:1
36,54:1
36,59:1
36,61:1
36,62:1
36,63:1
36,64:1
36,66:1
36,67:1
37,30:1
37,54:1
37,59:1
37,61:1
37,62:1
37,63:1
37,64:1
37,66:1
37,67:1
38,30:1
38,54:1
38,59:1
38,61:1
38,62:1
38,63:1
38,64:1
38,66:1
38,67:1
39,30:1
39,41:1
39,42:1
39,43:1
39,54:1
39,59:1
39,61:1
39,62:1
39,63:1
39,64:1
39,66:1
39,67:1
40,30:1
40,41:1
40,42:1
40,43:1
40,45:1
40,46:1
40,47:1
40,48:1
40,54:1
40,59:1
40,61:1
40,62:1
40,63:1
40,64:1
40,66:1
40,67:1
41,16:1
41,21:1
41,40:1
41,44:1
41,49:1
41,50:1
41,51:1
41,55:1
41,56:1
41,57:1
41,58:1
41,60:1
41,65:1
42,16:1
42,21:1
42,40:1
42,44:1
42,49:1
42,50:1
42,51:1
42,55:1
42,56:1
42,57:1
42,58:1
42,60:1
42,65:1
43,16:1
43,21:1
43,40:1
43,44:1
43,55:1
43,56:1
43,57:1
43,58:1
43,60:1
43,65:1
44,30:1
44,41:1
44,42:1
44,43:1
44,45:1
44,46:1
44,47:1
44,48:1
44,52:1
44,54:1
44,59:1
44,61:1
44,62:1
44,63:1
44,64:1
44,66:1
44,67:1
45,16:1
45,21:1
45,40:1
45,44:1
45,55:1
45,56:1
45,57:1
45,58:1
45,60:1
45,65:1
46,16:1
46,21:1
46,40:1
46,44:1
46,55:1
46,56:1
46,57:1
46,58:1
46,60:1
46,65:1
47,16:1
47,21:1
47,40:1
47,44:1
47,49:1
47,55:1
47,56:1
47,57:1
47,58:1
47,60:1
47,65:1
48,16:1
48,21:1
48,40:1
48,44:1
48,49:1
48,50:1
48,51:1
48,55:1
48,56:1
48,57:1
48,58:1
48,60:1
48,65:1
48,75:1
48,76:1
48,79:1
48,80:1
48,81:1
48,82:1
48,83:1
48,84:1
48,85:1
48,86:1
48,87:1
48,88:1
48,89:1
49,30:1
49,41:1
49,42:1
49,48:1
49,54:1
49,59:1
49,61:1
49,62:1
49,63:1
49,64:1
49,66:1
49,67:1
50,30:1
50,41:1
50,42:1
50,48:1
50,54:1
50,59:1
50,61:1
50,62:1
50,63:1
50,64:1
50,66:1
50,67:1
51,30:1
51,41:1
51,42:1
51,48:1
51,52:1
51,54:1
51,59:1
51,61:1
51,62:1
51,63:1
51,64:1
51,66:1
51,67:1
52,16:1
52,21:1
52,55:1
52,56:1
52,57:1
52,58:1
52,60:1
52,65:1
53,16:1
53,21:1
53,55:1
53,56:1
53,57:1
53,58:1
53,60:1
53,65:1
54,24:1
54,25:1
54,26:1
54,34:1
54,35:1
54,36:1
54,37:1
54,38:1
54,39:1
54,40:1
54,44:1
54,49:1
54,50:1
54,51:1
54,55:1
54,80:1
55,19:1
55,22:1
55,23:1
55,27:1
55,28:1
55,29:1
55,31:1
55,32:1
55,33:1
55,41:1
55,42:1
55,43:1
55,45:1
55,46:1
55,47:1
55,48:1
55,52:1
55,53:1
55,68:1
55,69:1
55,70:1
55,71:1
55,72:1
56,19:1
56,22:1
56,23:1
56,27:1
56,28:1
56,29:1
56,31:1
56,32:1
56,33:1
56,41:1
56,42:1
56,43:1
56,45:1
56,46:1
56,47:1
56,48:1
56,52:1
56,53:1
56,68:1
56,69:1
56,70:1
56,71:1
56,72:1
57,19:1
57,22:1
57,23:1
57,27:1
57,28:1
57,29:1
57,31:1
57,32:1
57,33:1
57,41:1
57,42:1
57,43:1
57,45:1
57,46:1
57,47:1
57,48:1
57,52:1
57,53:1
57,59:1
57,61:1
57,62:1
57,63:1
57,64:1
57,66:1
57,68:1
57,69:1
57,70:1
57,71:1
57,72:1
58,19:1
58,22:1
58,23:1
58,27:1
58,28:1
58,29:1
58,31:1
58,32:1
58,33:1
58,41:1
58,42:1
58,43:1
58,45:1
58,46:1
58,47:1
58,48:1
58,52:1
58,53:1
58,59:1
58,61:1
58,62:1
58,63:1
58,64:1
58,66:1
58,67:1
58,68:1
58,69:1
58,70:1
58,71:1
58,72:1
59,24:1
59,25:1
59,26:1
59,34:1
59,35:1
59,36:1
59,37:1
59,38:1
59,39:1
59,40:1
59,44:1
59,49:1
59,50:1
59,51:1
59,58:1
59,60:1
59,65:1
59,80:1
60,19:1
60,22:1
60,23:1
60,27:1
60,28:1
60,29:1
60,31:1
60,32:1
60,33:1
60,41:1
60,42:1
60,43:1
60,45:1
60,46:1
60,47:1
60,48:1
60,52:1
60,53:1
60,59:1
60,61:1
60,62:1
60,63:1
60,64:1
60,66:1
60,67:1
60,68:1
60,69:1
60,70:1
60,71:1
60,72:1
61,24:1
61,25:1
61,26:1
61,34:1
61,35:1
61,36:1
61,37:1
61,38:1
61,39:1
61,40:1
61,44:1
61,49:1
61,50:1
61,51:1
61,58:1
61,60:1
61,65:1
61,80:1
62,24:1
62,25:1
62,26:1
62,34:1
62,35:1
62,36:1
62,37:1
62,38:1
62,39:1
62,40:1
62,44:1
62,49:1
62,50:1
62,51:1
62,58:1
62,60:1
62,65:1
62,80:1
63,24:1
63,25:1
63,26:1
63,34:1
63,35:1
63,36:1
63,37:1
63,38:1
63,39:1
63,40:1
63,44:1
63,49:1
63,50:1
63,51:1
63,58:1
63,60:1
63,65:1
63,80:1
64,24:1
64,25:1
64,26:1
64,34:1
64,35:1
64,36:1
64,37:1
64,38:1
64,39:1
64,40:1
64,44:1
64,49:1
64,50:1
64,51:1
64,58:1
64,60:1
64,65:1
64,80:1
65,19:1
65,22:1
65,23:1
65,27:1
65,28:1
65,29:1
65,31:1
65,32:1
65,33:1
65,41:1
65,42:1
65,43:1
65,45:1
65,46:1
65,47:1
65,48:1
65,52:1
65,53:1
65,59:1
65,61:1
65,62:1
65,63:1
65,64:1
65,66:1
65,67:1
65,68:1
65,69:1
65,70:1
65,71:1
65,72:1
66,24:1
66,25:1
66,26:1
66,34:1
66,35:1
66,36:1
66,37:1
66,38:1
66,39:1
66,40:1
66,44:1
66,49:1
66,50:1
66,51:1
66,58:1
66,60:1
66,65:1
66,80:1
67,24:1
67,25:1
67,26:1
67,34:1
67,35:1
67,36:1
67,37:1
67,38:1
67,39:1
67,40:1
67,44:1
67,49:1
67,50:1
67,51:1
67,80:1
68,16:1
68,21:1
68,55:1
68,56:1
68,57:1
68,58:1
68,60:1
68,65:1
68,75:1
68,76:1
69,16:1
69,21:1
69,55:1
69,56:1
69,57:1
69,58:1
69,60:1
69,65:1
69,75:1
69,76:1
70,16:1
70,21:1
70,55:1
70,56:1
70,57:1
70,58:1
70,60:1
70,65:1
70,75:1
70,76:1
71,16:1
71,21:1
71,55:1
71,56:1
71,57:1
71,58:1
71,60:1
71,65:1
71,80:1
72,16:1
72,21:1
72,55:1
72,56:1
72,57:1
72,58:1
72,60:1
72,65:1
72,75:1
72,76:1
72,80:1
73,80:1
74,75:1
74,76:1
74,80:1
75,48:1
75,68:1
75,69:1
75,70:1
75,72:1
75,77:1
76,48:1
76,68:1
76,69:1
76,70:1
76,72:1
76,77:1
76,78:1
77,76:1
77,80:1
78,76:1
78,79:1
78,80:1
79,48:1
80,30:1
80,48:1
80,54:1
80,59:1
80,61:1
80,62:1
80,63:1
80,64:1
80,66:1
80,67:1
80,71:1
80,73:1
80,74:1
80,77:1
80,78:1
81,48:1
82,48:1
83,48:1
84,48:1
85,48:1
86,48:1
87,48:1
88,48:1
89,48:1

<setup times backward>
1,30:1
2,30:1
3,30:1
4,30:1
5,12:1
5,13:1
5,30:1
6,10:1
6,30:1
7,10:1
7,30:1
8,10:1
8,12:1
8,13:1
8,17:1
8,30:1
9,10:1
9,12:1
9,13:1
9,17:1
9,30:1
11,10:1
11,30:1
14,10:1
14,12:1
14,13:1
14,30:1
15,10:1
15,12:1
15,13:1
15,30:1
16,10:1
16,12:1
16,13:1
16,17:1
16,18:1
16,19:1
16,22:1
16,23:1
16,27:1
16,28:1
16,29:1
16,30:1
16,31:1
16,32:1
16,33:1
16,41:1
16,42:1
16,43:1
16,45:1
16,46:1
16,47:1
16,48:1
16,52:1
16,53:1
16,68:1
16,69:1
16,70:1
16,71:1
16,72:1
20,10:1
20,12:1
20,13:1
20,17:1
20,18:1
20,19:1
20,22:1
20,23:1
20,27:1
20,30:1
21,10:1
21,12:1
21,13:1
21,17:1
21,18:1
21,19:1
21,22:1
21,23:1
21,27:1
21,28:1
21,29:1
21,30:1
21,31:1
21,32:1
21,33:1
21,41:1
21,42:1
21,43:1
21,45:1
21,46:1
21,47:1
21,48:1
21,52:1
21,53:1
21,68:1
21,69:1
21,70:1
21,71:1
21,72:1
24,10:1
24,12:1
24,13:1
24,17:1
24,18:1
24,19:1
24,22:1
24,23:1
24,28:1
24,30:1
24,54:1
24,59:1
24,61:1
24,62:1
24,63:1
24,64:1
24,66:1
24,67:1
25,10:1
25,12:1
25,13:1
25,17:1
25,18:1
25,19:1
25,22:1
25,23:1
25,28:1
25,30:1
25,54:1
25,59:1
25,61:1
25,62:1
25,63:1
25,64:1
25,66:1
25,67:1
26,10:1
26,12:1
26,13:1
26,17:1
26,18:1
26,19:1
26,22:1
26,23:1
26,27:1
26,28:1
26,29:1
26,30:1
26,31:1
26,32:1
26,33:1
26,54:1
26,59:1
26,61:1
26,62:1
26,63:1
26,64:1
26,66:1
26,67:1
34,10:1
34,12:1
34,13:1
34,17:1
34,18:1
34,19:1
34,22:1
34,23:1
34,27:1
34,28:1
34,29:1
34,30:1
34,31:1
34,32:1
34,33:1
34,54:1
34,59:1
34,61:1
34,62:1
34,63:1
34,64:1
34,66:1
34,67:1
35,10:1
35,12:1
35,13:1
35,17:1
35,18:1
35,19:1
35,22:1
35,23:1
35,27:1
35,28:1
35,29:1
35,30:1
35,31:1
35,32:1
35,33:1
35,54:1
35,59:1
35,61:1
35,62:1
35,63:1
35,64:1
35,66:1
35,67:1
36,10:1
36,12:1
36,13:1
36,17:1
36,18:1
36,19:1
36,22:1
36,23:1
36,27:1
36,28:1
36,29:1
36,30:1
36,31:1
36,32:1
36,33:1
36,54:1
36,59:1
36,61:1
36,62:1
36,63:1
36,64:1
36,66:1
36,67:1
37,10:1
37,12:1
37,13:1
37,17:1
37,18:1
37,19:1
37,22:1
37,23:1
37,27:1
37,28:1
37,29:1
37,30:1
37,31:1
37,32:1
37,33:1
37,54:1
37,59:1
37,61:1
37,62:1
37,63:1
37,64:1
37,66:1
37,67:1
38,10:1
38,12:1
38,13:1
38,17:1
38,18:1
38,19:1
38,22:1
38,23:1
38,27:1
38,28:1
38,29:1
38,30:1
38,31:1
38,32:1
38,33:1
38,54:1
38,59:1
38,61:1
38,62:1
38,63:1
38,64:1
38,66:1
38,67:1
39,10:1
39,12:1
39,13:1
39,17:1
39,18:1
39,19:1
39,22:1
39,23:1
39,27:1
39,28:1
39,29:1
39,30:1
39,31:1
39,32:1
39,33:1
39,54:1
39,59:1
39,61:1
39,62:1
39,63:1
39,64:1
39,66:1
39,67:1
40,10:1
40,12:1
40,13:1
40,17:1
40,18:1
40,19:1
40,22:1
40,23:1
40,27:1
40,28:1
40,29:1
40,30:1
40,31:1
40,32:1
40,33:1
40,41:1
40,42:1
40,43:1
40,45:1
40,46:1
40,47:1
40,48:1
40,54:1
40,59:1
40,61:1
40,62:1
40,63:1
40,64:1
40,66:1
40,67:1
44,10:1
44,12:1
44,13:1
44,17:1
44,18:1
44,19:1
44,22:1
44,23:1
44,27:1
44,28:1
44,29:1
44,30:1
44,31:1
44,32:1
44,33:1
44,41:1
44,42:1
44,43:1
44,45:1
44,46:1
44,47:1
44,48:1
44,54:1
44,59:1
44,61:1
44,62:1
44,63:1
44,64:1
44,66:1
44,67:1
49,10:1
49,12:1
49,13:1
49,17:1
49,18:1
49,19:1
49,22:1
49,23:1
49,27:1
49,28:1
49,29:1
49,30:1
49,31:1
49,32:1
49,33:1
49,41:1
49,42:1
49,43:1
49,45:1
49,46:1
49,47:1
49,48:1
49,54:1
49,59:1
49,61:1
49,62:1
49,63:1
49,64:1
49,66:1
49,67:1
50,10:1
50,12:1
50,13:1
50,17:1
50,18:1
50,19:1
50,22:1
50,23:1
50,27:1
50,28:1
50,29:1
50,30:1
50,31:1
50,32:1
50,33:1
50,41:1
50,42:1
50,43:1
50,45:1
50,46:1
50,47:1
50,48:1
50,54:1
50,59:1
50,61:1
50,62:1
50,63:1
50,64:1
50,66:1
50,67:1
51,10:1
51,12:1
51,13:1
51,17:1
51,18:1
51,19:1
51,22:1
51,23:1
51,27:1
51,28:1
51,29:1
51,30:1
51,31:1
51,32:1
51,33:1
51,41:1
51,42:1
51,43:1
51,45:1
51,46:1
51,47:1
51,48:1
51,54:1
51,59:1
51,61:1
51,62:1
51,63:1
51,64:1
51,66:1
51,67:1
55,10:1
55,12:1
55,13:1
55,17:1
55,18:1
55,19:1
55,22:1
55,23:1
55,27:1
55,28:1
55,29:1
55,30:1
55,31:1
55,32:1
55,33:1
55,41:1
55,42:1
55,43:1
55,45:1
55,46:1
55,47:1
55,48:1
55,52:1
55,53:1
55,54:1
55,68:1
55,69:1
55,70:1
55,71:1
55,72:1
56,10:1
56,12:1
56,13:1
56,17:1
56,18:1
56,19:1
56,22:1
56,23:1
56,27:1
56,28:1
56,29:1
56,30:1
56,31:1
56,32:1
56,33:1
56,41:1
56,42:1
56,43:1
56,45:1
56,46:1
56,47:1
56,48:1
56,52:1
56,53:1
56,54:1
56,68:1
56,69:1
56,70:1
56,71:1
56,72:1
57,10:1
57,12:1
57,13:1
57,17:1
57,18:1
57,19:1
57,22:1
57,23:1
57,27:1
57,28:1
57,29:1
57,30:1
57,31:1
57,32:1
57,33:1
57,41:1
57,42:1
57,43:1
57,45:1
57,46:1
57,47:1
57,48:1
57,52:1
57,53:1
57,54:1
57,68:1
57,69:1
57,70:1
57,71:1
57,72:1
58,10:1
58,12:1
58,13:1
58,17:1
58,18:1
58,19:1
58,22:1
58,23:1
58,27:1
58,28:1
58,29:1
58,30:1
58,31:1
58,32:1
58,33:1
58,41:1
58,42:1
58,43:1
58,45:1
58,46:1
58,47:1
58,48:1
58,52:1
58,53:1
58,54:1
58,59:1
58,61:1
58,62:1
58,63:1
58,64:1
58,66:1
58,68:1
58,69:1
58,70:1
58,71:1
58,72:1
60,10:1
60,12:1
60,13:1
60,17:1
60,18:1
60,19:1
60,22:1
60,23:1
60,27:1
60,28:1
60,29:1
60,30:1
60,31:1
60,32:1
60,33:1
60,41:1
60,42:1
60,43:1
60,45:1
60,46:1
60,47:1
60,48:1
60,52:1
60,53:1
60,54:1
60,59:1
60,61:1
60,62:1
60,63:1
60,64:1
60,66:1
60,68:1
60,69:1
60,70:1
60,71:1
60,72:1
65,10:1
65,12:1
65,13:1
65,17:1
65,18:1
65,19:1
65,22:1
65,23:1
65,27:1
65,28:1
65,29:1
65,30:1
65,31:1
65,32:1
65,33:1
65,41:1
65,42:1
65,43:1
65,45:1
65,46:1
65,47:1
65,48:1
65,52:1
65,53:1
65,54:1
65,59:1
65,61:1
65,62:1
65,63:1
65,64:1
65,66:1
65,68:1
65,69:1
65,70:1
65,71:1
65,72:1
75,10:1
75,12:1
75,13:1
75,17:1
75,18:1
75,19:1
75,22:1
75,23:1
75,27:1
75,28:1
75,29:1
75,30:1
75,31:1
75,32:1
75,33:1
75,41:1
75,42:1
75,43:1
75,45:1
75,46:1
75,47:1
75,48:1
75,52:1
75,53:1
75,54:1
75,59:1
75,61:1
75,62:1
75,63:1
75,64:1
75,66:1
75,67:1
75,68:1
75,69:1
75,70:1
75,71:1
75,72:1
75,73:1
75,74:1
76,10:1
76,12:1
76,13:1
76,17:1
76,18:1
76,19:1
76,22:1
76,23:1
76,27:1
76,28:1
76,29:1
76,30:1
76,31:1
76,32:1
76,33:1
76,41:1
76,42:1
76,43:1
76,45:1
76,46:1
76,47:1
76,48:1
76,52:1
76,53:1
76,54:1
76,59:1
76,61:1
76,62:1
76,63:1
76,64:1
76,66:1
76,67:1
76,68:1
76,69:1
76,70:1
76,71:1
76,72:1
76,73:1
76,74:1
76,77:1
76,78:1
79,10:1
79,12:1
79,13:1
79,17:1
79,18:1
79,19:1
79,22:1
79,23:1
79,27:1
79,28:1
79,29:1
79,30:1
79,31:1
79,32:1
79,33:1
79,41:1
79,42:1
79,43:1
79,45:1
79,46:1
79,47:1
79,48:1
79,52:1
79,53:1
79,54:1
79,59:1
79,61:1
79,62:1
79,63:1
79,64:1
79,66:1
79,67:1
79,68:1
79,69:1
79,70:1
79,71:1
79,72:1
79,73:1
79,74:1
79,77:1
79,78:1
80,10:1
80,12:1
80,13:1
80,17:1
80,18:1
80,19:1
80,22:1
80,23:1
80,27:1
80,28:1
80,29:1
80,30:1
80,31:1
80,32:1
80,33:1
80,41:1
80,42:1
80,43:1
80,45:1
80,46:1
80,47:1
80,48:1
80,52:1
80,53:1
80,54:1
80,59:1
80,61:1
80,62:1
80,63:1
80,64:1
80,66:1
80,67:1
80,68:1
80,69:1
80,70:1
80,71:1
80,72:1
80,73:1
80,74:1
80,77:1
80,78:1
81,10:1
81,12:1
81,13:1
81,17:1
81,18:1
81,19:1
81,22:1
81,23:1
81,27:1
81,28:1
81,29:1
81,30:1
81,31:1
81,32:1
81,33:1
81,41:1
81,42:1
81,43:1
81,45:1
81,46:1
81,47:1
81,48:1
81,52:1
81,53:1
81,54:1
81,59:1
81,61:1
81,62:1
81,63:1
81,64:1
81,66:1
81,67:1
81,68:1
81,69:1
81,70:1
81,71:1
81,72:1
81,73:1
81,74:1
81,77:1
81,78:1
82,10:1
82,12:1
82,13:1
82,17:1
82,18:1
82,19:1
82,22:1
82,23:1
82,27:1
82,28:1
82,29:1
82,30:1
82,31:1
82,32:1
82,33:1
82,41:1
82,42:1
82,43:1
82,45:1
82,46:1
82,47:1
82,48:1
82,52:1
82,53:1
82,54:1
82,59:1
82,61:1
82,62:1
82,63:1
82,64:1
82,66:1
82,67:1
82,68:1
82,69:1
82,70:1
82,71:1
82,72:1
82,73:1
82,74:1
82,77:1
82,78:1
83,10:1
83,12:1
83,13:1
83,17:1
83,18:1
83,19:1
83,22:1
83,23:1
83,27:1
83,28:1
83,29:1
83,30:1
83,31:1
83,32:1
83,33:1
83,41:1
83,42:1
83,43:1
83,45:1
83,46:1
83,47:1
83,48:1
83,52:1
83,53:1
83,54:1
83,59:1
83,61:1
83,62:1
83,63:1
83,64:1
83,66:1
83,67:1
83,68:1
83,69:1
83,70:1
83,71:1
83,72:1
83,73:1
83,74:1
83,77:1
83,78:1
84,10:1
84,12:1
84,13:1
84,17:1
84,18:1
84,19:1
84,22:1
84,23:1
84,27:1
84,28:1
84,29:1
84,30:1
84,31:1
84,32:1
84,33:1
84,41:1
84,42:1
84,43:1
84,45:1
84,46:1
84,47:1
84,48:1
84,52:1
84,53:1
84,54:1
84,59:1
84,61:1
84,62:1
84,63:1
84,64:1
84,66:1
84,67:1
84,68:1
84,69:1
84,70:1
84,71:1
84,72:1
84,73:1
84,74:1
84,77:1
84,78:1
85,10:1
85,12:1
85,13:1
85,17:1
85,18:1
85,19:1
85,22:1
85,23:1
85,27:1
85,28:1
85,29:1
85,30:1
85,31:1
85,32:1
85,33:1
85,41:1
85,42:1
85,43:1
85,45:1
85,46:1
85,47:1
85,48:1
85,52:1
85,53:1
85,54:1
85,59:1
85,61:1
85,62:1
85,63:1
85,64:1
85,66:1
85,67:1
85,68:1
85,69:1
85,70:1
85,71:1
85,72:1
85,73:1
85,74:1
85,77:1
85,78:1
86,10:1
86,12:1
86,13:1
86,17:1
86,18:1
86,19:1
86,22:1
86,23:1
86,27:1
86,28:1
86,29:1
86,30:1
86,31:1
86,32:1
86,33:1
86,41:1
86,42:1
86,43:1
86,45:1
86,46:1
86,47:1
86,48:1
86,52:1
86,53:1
86,54:1
86,59:1
86,61:1
86,62:1
86,63:1
86,64:1
86,66:1
86,67:1
86,68:1
86,69:1
86,70:1
86,71:1
86,72:1
86,73:1
86,74:1
86,77:1
86,78:1
87,10:1
87,12:1
87,13:1
87,17:1
87,18:1
87,19:1
87,22:1
87,23:1
87,27:1
87,28:1
87,29:1
87,30:1
87,31:1
87,32:1
87,33:1
87,41:1
87,42:1
87,43:1
87,45:1
87,46:1
87,47:1
87,48:1
87,52:1
87,53:1
87,54:1
87,59:1
87,61:1
87,62:1
87,63:1
87,64:1
87,66:1
87,67:1
87,68:1
87,69:1
87,70:1
87,71:1
87,72:1
87,73:1
87,74:1
87,77:1
87,78:1
88,10:1
88,12:1
88,13:1
88,17:1
88,18:1
88,19:1
88,22:1
88,23:1
88,27:1
88,28:1
88,29:1
88,30:1
88,31:1
88,32:1
88,33:1
88,41:1
88,42:1
88,43:1
88,45:1
88,46:1
88,47:1
88,48:1
88,52:1
88,53:1
88,54:1
88,59:1
88,61:1
88,62:1
88,63:1
88,64:1
88,66:1
88,67:1
88,68:1
88,69:1
88,70:1
88,71:1
88,72:1
88,73:1
88,74:1
88,77:1
88,78:1
89,10:1
89,12:1
89,13:1
89,17:1
89,18:1
89,19:1
89,22:1
89,23:1
89,27:1
89,28:1
89,29:1
89,30:1
89,31:1
89,32:1
89,33:1
89,41:1
89,42:1
89,43:1
89,45:1
89,46:1
89,47:1
89,48:1
89,52:1
89,53:1
89,54:1
89,59:1
89,61:1
89,62:1
89,63:1
89,64:1
89,66:1
89,67:1
89,68:1
89,69:1
89,70:1
89,71:1
89,72:1
89,73:1
89,74:1
89,77:1
89,78:1

<end>

<optimal SALBP-1 value>
34


<rand seed>
467321153

